NAME          COPTPROB
OBJSENSE
  MIN
ROWS
 N  __OBJ___
 L  C4      
 L  C5      
 L  C8      
 L  C9      
 L  C16     
 L  C20     
 L  C27     
 L  C33     
 L  C42     
 L  C44     
 L  C46     
 L  C53     
 L  C54     
 L  C56     
 L  C58     
 L  C59     
 L  C60     
 L  C65     
 L  C68     
 L  C73     
 L  C76     
 L  C78     
 L  C79     
 L  C80     
 L  C82     
 L  C86     
 L  C87     
 L  C92     
 L  C96     
 L  C99     
 L  C103    
 L  C109    
 L  C114    
 L  C117    
 L  C118    
 L  C121    
 L  C123    
 L  C126    
 L  C128    
 L  C130    
 L  C133    
 L  C139    
 L  C142    
 L  C146    
 L  C148    
 L  C154    
 L  C156    
 L  C157    
 L  C158    
 L  C163    
 L  C170    
 L  C178    
 L  C180    
 L  C181    
 L  C182    
 L  C193    
 L  C196    
 L  C197    
 L  C199    
 L  C202    
 L  C205    
 L  C206    
 L  C207    
 L  C215    
 L  C219    
 L  C224    
 L  C226    
 L  C228    
 L  C229    
 L  C236    
 L  C242    
 L  C243    
 L  C244    
 L  C248    
 L  C250    
 L  C251    
 L  C256    
 L  C257    
 L  C258    
 L  C259    
 L  C263    
 L  C265    
 L  C267    
 L  C269    
 L  C277    
 L  C279    
 L  C286    
 L  C289    
 L  C290    
 L  C292    
 L  C294    
 L  C303    
 L  C305    
 L  C307    
 L  C308    
 L  C325    
 L  C328    
 L  C330    
 L  C336    
 L  C339    
 L  C349    
 L  C353    
 L  C356    
 L  C357    
 L  C362    
 L  C363    
 L  C366    
 L  C369    
 L  C372    
 L  C374    
 L  C377    
 L  C381    
 L  C383    
 L  C384    
 L  C386    
 L  C391    
 L  C393    
 L  C397    
 L  C398    
 L  C399    
COLUMNS
    MARKER    'MARKER'                 'INTORG'
    x2        __OBJ___  387
    x2        C68       -1
    x2        C224      -1
    x2        C244      -1
    x2        C258      -1
    x3        __OBJ___  636
    x3        C42       -1
    x3        C305      -1
    x3        C386      -1
    x4        __OBJ___  121
    x4        C178      -1
    x4        C294      -1
    x4        C307      -1
    x5        __OBJ___  77
    x5        C73       -1
    x5        C87       -1
    x16       __OBJ___  290
    x16       C4        -1
    x16       C65       -1
    x16       C109      -1
    x16       C279      -1
    x17       __OBJ___  867
    x17       C82       -1
    x17       C96       -1
    x17       C163      -1
    x17       C362      -1
    x20       __OBJ___  360
    x20       C133      -1
    x20       C205      -1
    x20       C250      -1
    x23       __OBJ___  19
    x23       C56       -1
    x23       C157      -1
    x23       C336      -1
    x24       __OBJ___  155
    x24       C80       -1
    x24       C156      -1
    x35       __OBJ___  194
    x35       C33       -1
    x35       C328      -1
    x38       __OBJ___  686
    x38       C397      -1
    x41       __OBJ___  322
    x41       C99       -1
    x41       C154      -1
    x41       C215      -1
    x42       __OBJ___  683
    x42       C92       -1
    x42       C126      -1
    x42       C242      -1
    x46       __OBJ___  545
    x46       C243      -1
    x46       C289      -1
    x46       C398      -1
    x50       __OBJ___  309
    x50       C228      -1
    x50       C257      -1
    x51       __OBJ___  344
    x51       C44       -1
    x51       C114      -1
    x51       C182      -1
    x51       C265      -1
    x51       C353      -1
    x52       __OBJ___  851
    x52       C267      -1
    x52       C303      -1
    x52       C393      -1
    x56       __OBJ___  420
    x56       C146      -1
    x56       C206      -1
    x64       __OBJ___  129
    x64       C118      -1
    x64       C180      -1
    x67       __OBJ___  409
    x67       C27       -1
    x67       C207      -1
    x67       C236      -1
    x67       C372      -1
    x69       __OBJ___  812
    x69       C142      -1
    x69       C197      -1
    x69       C339      -1
    x69       C399      -1
    x70       __OBJ___  785
    x70       C59       -1
    x70       C128      -1
    x70       C256      -1
    x70       C349      -1
    x71       __OBJ___  369
    x71       C16       -1
    x71       C277      -1
    x74       __OBJ___  342
    x74       C139      -1
    x74       C248      -1
    x74       C259      -1
    x74       C356      -1
    x74       C369      -1
    x79       __OBJ___  211
    x79       C54       -1
    x79       C383      -1
    x84       __OBJ___  721
    x84       C58       -1
    x84       C76       -1
    x84       C86       -1
    x84       C121      -1
    x85       __OBJ___  774
    x85       C78       -1
    x85       C196      -1
    x85       C286      -1
    x90       __OBJ___  23
    x90       C193      -1
    x94       __OBJ___  658
    x94       C60       -1
    x94       C103      -1
    x94       C366      -1
    x102      __OBJ___  213
    x102      C99       -1
    x102      C103      -1
    x108      __OBJ___  516
    x108      C205      -1
    x108      C308      -1
    x109      __OBJ___  89
    x109      C33       -1
    x109      C56       -1
    x109      C139      -1
    x110      __OBJ___  145
    x110      C79       -1
    x110      C263      -1
    x114      __OBJ___  227
    x114      C46       -1
    x114      C114      -1
    x114      C328      -1
    x115      __OBJ___  264
    x115      C76       -1
    x115      C87       -1
    x115      C286      -1
    x116      __OBJ___  392
    x116      C197      -1
    x116      C219      -1
    x124      __OBJ___  716
    x124      C158      -1
    x124      C398      -1
    x126      __OBJ___  6
    x126      C258      -1
    x126      C391      -1
    x129      __OBJ___  263
    x129      C292      -1
    x129      C357      -1
    x129      C391      -1
    x130      __OBJ___  737
    x130      C148      -1
    x130      C219      -1
    x130      C374      -1
    x130      C397      -1
    x132      __OBJ___  595
    x132      C60       -1
    x132      C384      -1
    x133      __OBJ___  215
    x133      C53       -1
    x133      C139      -1
    x133      C289      -1
    x133      C366      -1
    x135      __OBJ___  238
    x135      C4        -1
    x135      C242      -1
    x135      C372      -1
    x137      __OBJ___  19
    x137      C178      -1
    x137      C226      -1
    x138      __OBJ___  48
    x138      C244      -1
    x138      C259      -1
    x138      C383      -1
    x139      __OBJ___  537
    x139      C133      -1
    x139      C256      -1
    x141      __OBJ___  76
    x141      C130      -1
    x146      __OBJ___  753
    x146      C60       -1
    x146      C170      -1
    x146      C339      -1
    x149      __OBJ___  161
    x149      C154      -1
    x149      C399      -1
    x150      __OBJ___  533
    x150      C54       -1
    x150      C158      -1
    x155      __OBJ___  932
    x155      C60       -1
    x155      C96       -1
    x155      C156      -1
    x156      __OBJ___  93
    x156      C118      -1
    x156      C393      -1
    x159      __OBJ___  281
    x159      C206      -1
    x160      __OBJ___  453
    x160      C27       -1
    x160      C92       -1
    x160      C336      -1
    x162      __OBJ___  412
    x162      C199      -1
    x162      C277      -1
    x162      C286      -1
    x162      C336      -1
    x167      __OBJ___  777
    x167      C59       -1
    x167      C257      -1
    x167      C289      -1
    x172      __OBJ___  681
    x172      C92       -1
    x172      C224      -1
    x174      __OBJ___  90
    x174      C128      -1
    x174      C362      -1
    x179      __OBJ___  200
    x179      C242      -1
    x179      C330      -1
    x180      __OBJ___  74
    x180      C117      -1
    x180      C325      -1
    x183      __OBJ___  222
    x183      C46       -1
    x183      C139      -1
    x183      C229      -1
    x187      __OBJ___  416
    x187      C193      -1
    x187      C303      -1
    x187      C391      -1
    x191      __OBJ___  561
    x191      C42       -1
    x191      C215      -1
    x193      __OBJ___  952
    x193      C5        -1
    x193      C154      -1
    x193      C397      -1
    x195      __OBJ___  283
    x195      C56       -1
    x195      C99       -1
    x195      C126      -1
    x195      C269      -1
    x198      __OBJ___  204
    x198      C86       -1
    x198      C248      -1
    x198      C279      -1
    x201      __OBJ___  537
    x201      C180      -1
    x201      C243      -1
    x201      C377      -1
    x204      __OBJ___  257
    x204      C199      -1
    x211      __OBJ___  257
    x211      C118      -1
    x211      C142      -1
    x212      __OBJ___  23
    x212      C123      -1
    x212      C384      -1
    x214      __OBJ___  738
    x214      C8        -1
    x214      C146      -1
    x215      __OBJ___  885
    x215      C197      -1
    x215      C199      -1
    x215      C381      -1
    x215      C398      -1
    x220      __OBJ___  322
    x220      C16       -1
    x220      C20       -1
    x220      C44       -1
    x220      C130      -1
    x225      __OBJ___  17
    x225      C157      -1
    x225      C374      -1
    x226      __OBJ___  41
    x226      C251      -1
    x226      C290      -1
    x227      __OBJ___  384
    x227      C9        -1
    x227      C133      -1
    x227      C170      -1
    x227      C353      -1
    x230      __OBJ___  193
    x230      C128      -1
    x230      C148      -1
    x230      C339      -1
    x232      __OBJ___  294
    x232      C5        -1
    x232      C128      -1
    x232      C228      -1
    x232      C242      -1
    x232      C308      -1
    x243      __OBJ___  59
    x243      C20       -1
    x243      C263      -1
    x247      __OBJ___  362
    x247      C4        -1
    x247      C199      -1
    x250      __OBJ___  224
    x250      C308      -1
    x250      C374      -1
    x250      C383      -1
    x256      __OBJ___  348
    x256      C9        -1
    x256      C248      -1
    x256      C393      -1
    x264      __OBJ___  547
    x264      C130      -1
    x264      C196      -1
    x264      C199      -1
    x269      __OBJ___  313
    x269      C80       -1
    x269      C142      -1
    x272      __OBJ___  476
    x272      C58       -1
    x272      C244      -1
    x273      __OBJ___  643
    x273      C226      -1
    x273      C267      -1
    x275      __OBJ___  442
    x275      C8        -1
    x275      C257      -1
    x280      __OBJ___  95
    x280      C76       -1
    x280      C156      -1
    x285      __OBJ___  299
    x285      C53       -1
    x285      C181      -1
    x285      C294      -1
    x288      __OBJ___  11
    x288      C226      -1
    x288      C386      -1
    x291      __OBJ___  297
    x291      C79       -1
    x291      C109      -1
    x292      __OBJ___  828
    x292      C99       -1
    x292      C123      -1
    x292      C202      -1
    x292      C356      -1
    x292      C398      -1
    x294      __OBJ___  342
    x294      C251      -1
    x294      C377      -1
    x298      __OBJ___  32
    x298      C219      -1
    x300      __OBJ___  6
    x300      C207      -1
    x303      __OBJ___  272
    x303      C78       -1
    x303      C157      -1
    x303      C163      -1
    x303      C290      -1
    x315      __OBJ___  145
    x315      C257      -1
    x317      __OBJ___  63
    x317      C182      -1
    x317      C207      -1
    x317      C357      -1
    x317      C381      -1
    x321      __OBJ___  237
    x321      C4        -1
    x321      C78       -1
    x321      C243      -1
    x322      __OBJ___  127
    x322      C286      -1
    x322      C363      -1
    x324      __OBJ___  544
    x324      C196      -1
    x327      __OBJ___  175
    x327      C117      -1
    x327      C170      -1
    x327      C393      -1
    x328      __OBJ___  88
    x328      C170      -1
    x331      __OBJ___  662
    x331      C372      -1
    x331      C374      -1
    x331      C398      -1
    x336      __OBJ___  963
    x336      C59       -1
    x336      C121      -1
    x336      C207      -1
    x337      __OBJ___  61
    x337      C258      -1
    x337      C307      -1
    x337      C369      -1
    x339      __OBJ___  71
    x339      C251      -1
    x339      C325      -1
    x343      __OBJ___  504
    x343      C68       -1
    x343      C305      -1
    x345      __OBJ___  469
    x345      C250      -1
    x345      C330      -1
    x346      __OBJ___  547
    x346      C196      -1
    x346      C263      -1
    x347      __OBJ___  492
    x347      C349      -1
    x348      __OBJ___  190
    x348      C82       -1
    x348      C99       -1
    x348      C156      -1
    x352      __OBJ___  506
    x352      C73       -1
    x352      C398      -1
    x358      __OBJ___  81
    x358      C68       -1
    x360      __OBJ___  455
    x360      C163      -1
    x360      C206      -1
    x360      C362      -1
    x360      C363      -1
    x365      __OBJ___  89
    x365      C148      -1
    x371      __OBJ___  946
    x371      C178      -1
    x371      C250      -1
    x371      C265      -1
    x371      C349      -1
    x372      __OBJ___  336
    x372      C33       -1
    x372      C229      -1
    x372      C328      -1
    x377      __OBJ___  23
    x377      C65       -1
    x377      C236      -1
    x383      __OBJ___  297
    x383      C16       -1
    x388      __OBJ___  30
    x388      C114      -1
    x388      C269      -1
    x388      C307      -1
    x390      __OBJ___  321
    x390      C193      -1
    x390      C242      -1
    x390      C279      -1
    x392      __OBJ___  311
    x392      C27       -1
    x392      C383      -1
    x394      __OBJ___  253
    x394      C121      -1
    x394      C202      -1
    x394      C328      -1
    x394      C384      -1
    x397      __OBJ___  98
    x397      C87       -1
    x397      C181      -1
    x397      C292      -1
    MARKER    'MARKER'                 'INTEND'
RHS
    RHS       __OBJ___  -22986
    RHS       C4        -1
    RHS       C5        -1
    RHS       C8        -1
    RHS       C9        -1
    RHS       C16       -1
    RHS       C20       -1
    RHS       C27       -1
    RHS       C33       -1
    RHS       C42       -1
    RHS       C44       -1
    RHS       C46       -1
    RHS       C53       -1
    RHS       C54       -1
    RHS       C56       -1
    RHS       C58       -1
    RHS       C59       -1
    RHS       C60       -1
    RHS       C65       -1
    RHS       C68       -1
    RHS       C73       -1
    RHS       C76       -1
    RHS       C78       -1
    RHS       C79       -1
    RHS       C80       -1
    RHS       C82       -1
    RHS       C86       -1
    RHS       C87       -1
    RHS       C92       -1
    RHS       C96       -1
    RHS       C99       -1
    RHS       C103      -1
    RHS       C109      -1
    RHS       C114      -1
    RHS       C117      -1
    RHS       C118      -1
    RHS       C121      -1
    RHS       C123      -1
    RHS       C126      -1
    RHS       C128      -1
    RHS       C130      -1
    RHS       C133      -1
    RHS       C139      -1
    RHS       C142      -1
    RHS       C146      -1
    RHS       C148      -1
    RHS       C154      -1
    RHS       C156      -1
    RHS       C157      -1
    RHS       C158      -1
    RHS       C163      -1
    RHS       C170      -1
    RHS       C178      -1
    RHS       C180      -1
    RHS       C181      -1
    RHS       C182      -1
    RHS       C193      -1
    RHS       C196      -1
    RHS       C197      -1
    RHS       C199      -1
    RHS       C202      -1
    RHS       C205      -1
    RHS       C206      -1
    RHS       C207      -1
    RHS       C215      -1
    RHS       C219      -1
    RHS       C224      -1
    RHS       C226      -1
    RHS       C228      -1
    RHS       C229      -1
    RHS       C236      -1
    RHS       C242      -1
    RHS       C243      -1
    RHS       C244      -1
    RHS       C248      -1
    RHS       C250      -1
    RHS       C251      -1
    RHS       C256      -1
    RHS       C257      -1
    RHS       C258      -1
    RHS       C259      -1
    RHS       C263      -1
    RHS       C265      -1
    RHS       C267      -1
    RHS       C269      -1
    RHS       C277      -1
    RHS       C279      -1
    RHS       C286      -1
    RHS       C289      -1
    RHS       C290      -1
    RHS       C292      -1
    RHS       C294      -1
    RHS       C303      -1
    RHS       C305      -1
    RHS       C307      -1
    RHS       C308      -1
    RHS       C325      -1
    RHS       C328      -1
    RHS       C330      -1
    RHS       C336      -1
    RHS       C339      -1
    RHS       C349      -1
    RHS       C353      -1
    RHS       C356      -1
    RHS       C357      -1
    RHS       C362      -1
    RHS       C363      -1
    RHS       C366      -1
    RHS       C369      -1
    RHS       C372      -1
    RHS       C374      -1
    RHS       C377      -1
    RHS       C381      -1
    RHS       C383      -1
    RHS       C384      -1
    RHS       C386      -1
    RHS       C391      -1
    RHS       C393      -1
    RHS       C397      -1
    RHS       C398      -1
    RHS       C399      -1
BOUNDS
 UP BOUND     x2        1
 UP BOUND     x3        1
 UP BOUND     x4        1
 UP BOUND     x5        1
 UP BOUND     x16       1
 UP BOUND     x17       1
 UP BOUND     x20       1
 UP BOUND     x23       1
 UP BOUND     x24       1
 UP BOUND     x35       1
 UP BOUND     x38       1
 UP BOUND     x41       1
 UP BOUND     x42       1
 UP BOUND     x46       1
 UP BOUND     x50       1
 UP BOUND     x51       1
 UP BOUND     x52       1
 UP BOUND     x56       1
 UP BOUND     x64       1
 UP BOUND     x67       1
 UP BOUND     x69       1
 UP BOUND     x70       1
 UP BOUND     x71       1
 UP BOUND     x74       1
 UP BOUND     x79       1
 UP BOUND     x84       1
 UP BOUND     x85       1
 UP BOUND     x90       1
 UP BOUND     x94       1
 UP BOUND     x102      1
 UP BOUND     x108      1
 UP BOUND     x109      1
 UP BOUND     x110      1
 UP BOUND     x114      1
 UP BOUND     x115      1
 UP BOUND     x116      1
 UP BOUND     x124      1
 UP BOUND     x126      1
 UP BOUND     x129      1
 UP BOUND     x130      1
 UP BOUND     x132      1
 UP BOUND     x133      1
 UP BOUND     x135      1
 UP BOUND     x137      1
 UP BOUND     x138      1
 UP BOUND     x139      1
 UP BOUND     x141      1
 UP BOUND     x146      1
 UP BOUND     x149      1
 UP BOUND     x150      1
 UP BOUND     x155      1
 UP BOUND     x156      1
 UP BOUND     x159      1
 UP BOUND     x160      1
 UP BOUND     x162      1
 UP BOUND     x167      1
 UP BOUND     x172      1
 UP BOUND     x174      1
 UP BOUND     x179      1
 UP BOUND     x180      1
 UP BOUND     x183      1
 UP BOUND     x187      1
 UP BOUND     x191      1
 UP BOUND     x193      1
 UP BOUND     x195      1
 UP BOUND     x198      1
 UP BOUND     x201      1
 UP BOUND     x204      1
 UP BOUND     x211      1
 UP BOUND     x212      1
 UP BOUND     x214      1
 UP BOUND     x215      1
 UP BOUND     x220      1
 UP BOUND     x225      1
 UP BOUND     x226      1
 UP BOUND     x227      1
 UP BOUND     x230      1
 UP BOUND     x232      1
 UP BOUND     x243      1
 UP BOUND     x247      1
 UP BOUND     x250      1
 UP BOUND     x256      1
 UP BOUND     x264      1
 UP BOUND     x269      1
 UP BOUND     x272      1
 UP BOUND     x273      1
 UP BOUND     x275      1
 UP BOUND     x280      1
 UP BOUND     x285      1
 UP BOUND     x288      1
 UP BOUND     x291      1
 UP BOUND     x292      1
 UP BOUND     x294      1
 UP BOUND     x298      1
 UP BOUND     x300      1
 UP BOUND     x303      1
 UP BOUND     x315      1
 UP BOUND     x317      1
 UP BOUND     x321      1
 UP BOUND     x322      1
 UP BOUND     x324      1
 UP BOUND     x327      1
 UP BOUND     x328      1
 UP BOUND     x331      1
 UP BOUND     x336      1
 UP BOUND     x337      1
 UP BOUND     x339      1
 UP BOUND     x343      1
 UP BOUND     x345      1
 UP BOUND     x346      1
 UP BOUND     x347      1
 UP BOUND     x348      1
 UP BOUND     x352      1
 UP BOUND     x358      1
 UP BOUND     x360      1
 UP BOUND     x365      1
 UP BOUND     x371      1
 UP BOUND     x372      1
 UP BOUND     x377      1
 UP BOUND     x383      1
 UP BOUND     x388      1
 UP BOUND     x390      1
 UP BOUND     x392      1
 UP BOUND     x394      1
 UP BOUND     x397      1
ENDATA
